Second Year/First Semester/Algorithm Analysis/Homework 2/sat_in/bonus/04.wcnf
p wcnf 9 21 97
97 1 2 0
97 1 4 0
97 1 5 0
97 1 7 0
97 2 4 0
97 2 6 0
97 2 7 0
97 3 4 0
97 3 9 0
97 5 6 0
97 5 9 0
97 7 9 0
8 -1 0
9 -2 0
10 -3 0
12 -4 0
10 -5 0
12 -6 0
11 -7 0
12 -8 0
12 -9 0
