Second Year/First Semester/Algorithm Analysis/Homework 2/sat_in/task3/04.cnf
p cnf 36 346
1 2 3 4 5 6 7 8 9 0
10 11 12 13 14 15 16 17 18 0
19 20 21 22 23 24 25 26 27 0
28 29 30 31 32 33 34 35 36 0
-1 -10 0
-2 -11 0
-3 -12 0
-4 -13 0
-5 -14 0
-6 -15 0
-7 -16 0
-8 -17 0
-9 -18 0
-1 -19 0
-2 -20 0
-3 -21 0
-4 -22 0
-5 -23 0
-6 -24 0
-7 -25 0
-8 -26 0
-9 -27 0
-1 -28 0
-2 -29 0
-3 -30 0
-4 -31 0
-5 -32 0
-6 -33 0
-7 -34 0
-8 -35 0
-9 -36 0
-10 -19 0
-11 -20 0
-12 -21 0
-13 -22 0
-14 -23 0
-15 -24 0
-16 -25 0
-17 -26 0
-18 -27 0
-10 -28 0
-11 -29 0
-12 -30 0
-13 -31 0
-14 -32 0
-15 -33 0
-16 -34 0
-17 -35 0
-18 -36 0
-19 -28 0
-20 -29 0
-21 -30 0
-22 -31 0
-23 -32 0
-24 -33 0
-25 -34 0
-26 -35 0
-27 -36 0
-1 -11 0
-1 -13 0
-1 -14 0
-1 -16 0
-2 -10 0
-2 -13 0
-2 -15 0
-2 -16 0
-3 -10 0
-3 -11 0
-3 -13 0
-3 -18 0
-4 -10 0
-4 -11 0
-4 -12 0
-5 -10 0
-5 -11 0
-5 -12 0
-5 -13 0
-5 -15 0
-5 -18 0
-6 -10 0
-6 -11 0
-6 -12 0
-6 -13 0
-6 -14 0
-7 -10 0
-7 -11 0
-7 -12 0
-7 -13 0
-7 -14 0
-7 -15 0
-7 -18 0
-8 -10 0
-8 -11 0
-8 -12 0
-8 -13 0
-8 -14 0
-8 -15 0
-8 -16 0
-9 -10 0
-9 -11 0
-9 -12 0
-9 -13 0
-9 -14 0
-9 -15 0
-9 -16 0
-9 -17 0
-1 -20 0
-1 -22 0
-1 -23 0
-1 -25 0
-2 -19 0
-2 -22 0
-2 -24 0
-2 -25 0
-3 -19 0
-3 -20 0
-3 -22 0
-3 -27 0
-4 -19 0
-4 -20 0
-4 -21 0
-5 -19 0
-5 -20 0
-5 -21 0
-5 -22 0
-5 -24 0
-5 -27 0
-6 -19 0
-6 -20 0
-6 -21 0
-6 -22 0
-6 -23 0
-7 -19 0
-7 -20 0
-7 -21 0
-7 -22 0
-7 -23 0
-7 -24 0
-7 -27 0
-8 -19 0
-8 -20 0
-8 -21 0
-8 -22 0
-8 -23 0
-8 -24 0
-8 -25 0
-9 -19 0
-9 -20 0
-9 -21 0
-9 -22 0
-9 -23 0
-9 -24 0
-9 -25 0
-9 -26 0
-1 -29 0
-1 -31 0
-1 -32 0
-1 -34 0
-2 -28 0
-2 -31 0
-2 -33 0
-2 -34 0
-3 -28 0
-3 -29 0
-3 -31 0
-3 -36 0
-4 -28 0
-4 -29 0
-4 -30 0
-5 -28 0
-5 -29 0
-5 -30 0
-5 -31 0
-5 -33 0
-5 -36 0
-6 -28 0
-6 -29 0
-6 -30 0
-6 -31 0
-6 -32 0
-7 -28 0
-7 -29 0
-7 -30 0
-7 -31 0
-7 -32 0
-7 -33 0
-7 -36 0
-8 -28 0
-8 -29 0
-8 -30 0
-8 -31 0
-8 -32 0
-8 -33 0
-8 -34 0
-9 -28 0
-9 -29 0
-9 -30 0
-9 -31 0
-9 -32 0
-9 -33 0
-9 -34 0
-9 -35 0
-10 -20 0
-10 -22 0
-10 -23 0
-10 -25 0
-11 -19 0
-11 -22 0
-11 -24 0
-11 -25 0
-12 -19 0
-12 -20 0
-12 -22 0
-12 -27 0
-13 -19 0
-13 -20 0
-13 -21 0
-14 -19 0
-14 -20 0
-14 -21 0
-14 -22 0
-14 -24 0
-14 -27 0
-15 -19 0
-15 -20 0
-15 -21 0
-15 -22 0
-15 -23 0
-16 -19 0
-16 -20 0
-16 -21 0
-16 -22 0
-16 -23 0
-16 -24 0
-16 -27 0
-17 -19 0
-17 -20 0
-17 -21 0
-17 -22 0
-17 -23 0
-17 -24 0
-17 -25 0
-18 -19 0
-18 -20 0
-18 -21 0
-18 -22 0
-18 -23 0
-18 -24 0
-18 -25 0
-18 -26 0
-10 -29 0
-10 -31 0
-10 -32 0
-10 -34 0
-11 -28 0
-11 -31 0
-11 -33 0
-11 -34 0
-12 -28 0
-12 -29 0
-12 -31 0
-12 -36 0
-13 -28 0
-13 -29 0
-13 -30 0
-14 -28 0
-14 -29 0
-14 -30 0
-14 -31 0
-14 -33 0
-14 -36 0
-15 -28 0
-15 -29 0
-15 -30 0
-15 -31 0
-15 -32 0
-16 -28 0
-16 -29 0
-16 -30 0
-16 -31 0
-16 -32 0
-16 -33 0
-16 -36 0
-17 -28 0
-17 -29 0
-17 -30 0
-17 -31 0
-17 -32 0
-17 -33 0
-17 -34 0
-18 -28 0
-18 -29 0
-18 -30 0
-18 -31 0
-18 -32 0
-18 -33 0
-18 -34 0
-18 -35 0
-19 -29 0
-19 -31 0
-19 -32 0
-19 -34 0
-20 -28 0
-20 -31 0
-20 -33 0
-20 -34 0
-21 -28 0
-21 -29 0
-21 -31 0
-21 -36 0
-22 -28 0
-22 -29 0
-22 -30 0
-23 -28 0
-23 -29 0
-23 -30 0
-23 -31 0
-23 -33 0
-23 -36 0
-24 -28 0
-24 -29 0
-24 -30 0
-24 -31 0
-24 -32 0
-25 -28 0
-25 -29 0
-25 -30 0
-25 -31 0
-25 -32 0
-25 -33 0
-25 -36 0
-26 -28 0
-26 -29 0
-26 -30 0
-26 -31 0
-26 -32 0
-26 -33 0
-26 -34 0
-27 -28 0
-27 -29 0
-27 -30 0
-27 -31 0
-27 -32 0
-27 -33 0
-27 -34 0
-27 -35 0
